solution status: optimal solution found
objective value:                        50.0301565326
C35736                                              1 	(obj:0.3908010869)
C35748                                              1 	(obj:0.7044858447)
C35756                                              1 	(obj:0.8767331919)
C35768                                              1 	(obj:0.3655742988)
C35792                                              1 	(obj:0.5263362308)
C35800                                              1 	(obj:0.8910230789)
C35812                                              1 	(obj:0.2664068282)
C35824                                              1 	(obj:0.4515576718)
C35832                                              1 	(obj:0.4863685455)
C35852                                              1 	(obj:0.3605155221)
C35868                                              1 	(obj:0.5604727703)
C35880                                              1 	(obj:0.7875049828)
C35896                                              1 	(obj:0.8717870623)
C35916                                              1 	(obj:0.4126633111)
C35928                                              1 	(obj:0.2833440124)
C35936                                              1 	(obj:0.7677772054)
C35952                                              1 	(obj:0.7034077271)
C35960                                              1 	(obj:0.2741148404)
C35980                                              1 	(obj:0.4433569422)
C35992                                              1 	(obj:0.2472029471)
C36000                                              1 	(obj:0.5236354067)
C36024                                              1 	(obj:0.2085865235)
C36036                                              1 	(obj:0.0708462663)
C36048                                              1 	(obj:0.2646400182)
C36064                                              1 	(obj:0.0870941711)
C36084                                              1 	(obj:0.2996495083)
C36104                                              1 	(obj:0.3283356804)
C36124                                              1 	(obj:0.3106568495)
C36136                                              1 	(obj:0.929620654)
C36152                                              1 	(obj:0.7638648548)
C36164                                              1 	(obj:0.2613689819)
C36180                                              1 	(obj:0.9050202276)
C36196                                              1 	(obj:0.4822146469)
C36216                                              1 	(obj:0.0151219942)
C36224                                              1 	(obj:0.4693947398)
C36236                                              1 	(obj:0.0840456189)
C36256                                              1 	(obj:0.2747301419)
C36264                                              1 	(obj:0.9609239176)
C36284                                              1 	(obj:0.531664059)
C36304                                              1 	(obj:0.9849912234)
C36320                                              1 	(obj:0.442034054)
C36336                                              1 	(obj:0.3333471098)
C36348                                              1 	(obj:0.2294050708)
C36368                                              1 	(obj:0.2474710823)
C36384                                              1 	(obj:0.7714652216)
C36396                                              1 	(obj:0.5908556971)
C36404                                              1 	(obj:0.8609228857)
C36416                                              1 	(obj:0.4796118798)
C36440                                              1 	(obj:0.8703511693)
C36460                                              1 	(obj:0.90055603)
C36480                                              1 	(obj:0.0740562641)
C36504                                              1 	(obj:0.6682597954)
C36512                                              1 	(obj:0.0747762995)
C36532                                              1 	(obj:0.3531554224)
C36540                                              1 	(obj:0.1273703853)
C36552                                              1 	(obj:0.6325858209)
C36560                                              1 	(obj:0.1241389036)
C36572                                              1 	(obj:0.0879197066)
C36596                                              1 	(obj:0.7359104749)
C36616                                              1 	(obj:0.678310424)
C36640                                              1 	(obj:0.845973883)
C36648                                              1 	(obj:0.9088676954)
C36660                                              1 	(obj:0.7128765573)
C36680                                              1 	(obj:0.8287239009)
C36688                                              1 	(obj:0.2883492697)
C36696                                              1 	(obj:0.4576339578)
C36704                                              1 	(obj:0.5453067981)
C36728                                              1 	(obj:0.3977207441)
C36740                                              1 	(obj:0.4622562077)
C36756                                              1 	(obj:0.4816097212)
C36764                                              1 	(obj:0.517450809)
C36772                                              1 	(obj:0.0386252805)
C36788                                              1 	(obj:0.1483857565)
C36808                                              1 	(obj:0.7718052163)
C36820                                              1 	(obj:0.8653130852)
C36832                                              1 	(obj:0.2072342748)
C36840                                              1 	(obj:0.1121893072)
C36848                                              1 	(obj:0.2338929203)
C36856                                              1 	(obj:0.8788232835)
C36868                                              1 	(obj:0.4432764105)
C36884                                              1 	(obj:0.979270444)
C36896                                              1 	(obj:0.4964354075)
C36920                                              1 	(obj:0.1160977674)
C36932                                              1 	(obj:0.7650920409)
C36956                                              1 	(obj:0.1197260149)
C36964                                              1 	(obj:0.6962856632)
C36980                                              1 	(obj:0.9961848847)
C36996                                              1 	(obj:0.7445151193)
C37016                                              1 	(obj:0.8137629322)
C37032                                              1 	(obj:0.4255767036)
C37048                                              1 	(obj:0.0623285509)
C37068                                              1 	(obj:0.2257275326)
C37076                                              1 	(obj:0.8588834298)
C37092                                              1 	(obj:0.7888018473)
C37108                                              1 	(obj:0.5742926359)
C37128                                              1 	(obj:0.2018518951)
C37136                                              1 	(obj:0.4777565075)
C37152                                              1 	(obj:0.8188204681)
C37160                                              1 	(obj:0.1090056921)
C37180                                              1 	(obj:0.9030826348)
C37208                                              1 	(obj:0)
C37225                                              1 	(obj:0)
C37249                                              1 	(obj:0)
C37273                                              1 	(obj:0)
C37297                                              1 	(obj:0)
C37322                                              1 	(obj:0)
C37346                                              1 	(obj:0)
C37370                                              1 	(obj:0)
C37394                                              1 	(obj:0)
C37419                                              1 	(obj:0)
C37443                                              1 	(obj:0)
C37467                                              1 	(obj:0)
C37491                                              1 	(obj:0)
C37516                                              1 	(obj:0)
C37540                                              1 	(obj:0)
C37564                                              1 	(obj:0)
C37588                                              1 	(obj:0)
C37613                                              1 	(obj:0)
C37637                                              1 	(obj:0)
C37661                                              1 	(obj:0)
C37685                                              1 	(obj:0)
C37709                                              1 	(obj:0)
C37733                                              1 	(obj:0)
C37758                                              1 	(obj:0)
C37782                                              1 	(obj:0)
C37806                                              1 	(obj:0)
C37830                                              1 	(obj:0)
C37854                                              1 	(obj:0)
C37878                                              1 	(obj:0)
C37903                                              1 	(obj:0)
C37927                                              1 	(obj:0)
C37951                                              1 	(obj:0)
C37975                                              1 	(obj:0)
C37999                                              1 	(obj:0)
C38023                                              1 	(obj:0)
C38048                                              1 	(obj:0)
C38072                                              1 	(obj:0)
C38096                                              1 	(obj:0)
C38120                                              1 	(obj:0)
C38145                                              1 	(obj:0)
C38169                                              1 	(obj:0)
C38193                                              1 	(obj:0)
C38217                                              1 	(obj:0)
C38242                                              1 	(obj:0)
C38266                                              1 	(obj:0)
C38290                                              1 	(obj:0)
C38314                                              1 	(obj:0)
C38338                                              1 	(obj:0)
C38362                                              1 	(obj:0)
C38387                                              1 	(obj:0)
C38411                                              1 	(obj:0)
C38435                                              1 	(obj:0)
C38459                                              1 	(obj:0)
C38484                                              1 	(obj:0)
C38508                                              1 	(obj:0)
C38532                                              1 	(obj:0)
C38556                                              1 	(obj:0)
C38581                                              1 	(obj:0)
C38605                                              1 	(obj:0)
C38629                                              1 	(obj:0)
C38653                                              1 	(obj:0)
C38677                                              1 	(obj:0)
C38701                                              1 	(obj:0)
C38726                                              1 	(obj:0)
C38750                                              1 	(obj:0)
C38774                                              1 	(obj:0)
C38798                                              1 	(obj:0)
C38823                                              1 	(obj:0)
C38847                                              1 	(obj:0)
C38871                                              1 	(obj:0)
C38895                                              1 	(obj:0)
C38919                                              1 	(obj:0)
C38943                                              1 	(obj:0)
C38968                                              1 	(obj:0)
C38992                                              1 	(obj:0)
C39016                                              1 	(obj:0)
C39040                                              1 	(obj:0)
C39065                                              1 	(obj:0)
C39089                                              1 	(obj:0)
C39113                                              1 	(obj:0)
C39137                                              1 	(obj:0)
C39162                                              1 	(obj:0)
C39186                                              1 	(obj:0)
C39210                                              1 	(obj:0)
C39234                                              1 	(obj:0)
C39258                                              1 	(obj:0)
C39282                                              1 	(obj:0)
C39307                                              1 	(obj:0)
C39331                                              1 	(obj:0)
C39355                                              1 	(obj:0)
C39379                                              1 	(obj:0)
C39404                                              1 	(obj:0)
C39428                                              1 	(obj:0)
C39452                                              1 	(obj:0)
C39476                                              1 	(obj:0)
C39501                                              1 	(obj:0)
C39525                                              1 	(obj:0)
C39549                                              1 	(obj:0)
C39573                                              1 	(obj:0)
C39597                                              1 	(obj:0)
C39609                                              1 	(obj:0)
C39610                                              1 	(obj:0)
C39611                                              1 	(obj:0)
C39612                                              1 	(obj:0)
C39637                                              1 	(obj:0)
C39638                                              1 	(obj:0)
C39639                                              1 	(obj:0)
C39640                                              1 	(obj:0)
C39649                                              1 	(obj:0)
C39650                                              1 	(obj:0)
C39651                                              1 	(obj:0)
C39652                                              1 	(obj:0)
C39677                                              1 	(obj:0)
C39678                                              1 	(obj:0)
C39679                                              1 	(obj:0)
C39680                                              1 	(obj:0)
C39717                                              1 	(obj:0)
C39718                                              1 	(obj:0)
C39719                                              1 	(obj:0)
C39720                                              1 	(obj:0)
C39737                                              1 	(obj:0)
C39738                                              1 	(obj:0)
C39739                                              1 	(obj:0)
C39740                                              1 	(obj:0)
C39747                                              1 	(obj:0)
C39754                                              1 	(obj:0)
C39757                                              1 	(obj:0)
C39764                                              1 	(obj:0)
C39774                                              1 	(obj:0)
C39779                                              1 	(obj:0)
C39949                                              1 	(obj:0)
C39950                                              1 	(obj:0)
C39951                                              1 	(obj:0)
C39952                                              1 	(obj:0)
C39953                                              1 	(obj:0)
C39954                                              1 	(obj:0)
C39955                                              1 	(obj:0)
C39956                                              1 	(obj:0)
C39957                                              1 	(obj:0)
C39958                                              1 	(obj:0)
C39959                                              1 	(obj:0)
C39960                                              1 	(obj:0)
C39961                                              1 	(obj:0)
C39962                                              1 	(obj:0)
C39963                                              1 	(obj:0)
C39964                                              1 	(obj:0)
C39965                                              1 	(obj:0)
C39966                                              1 	(obj:0)
C39967                                              1 	(obj:0)
C39968                                              1 	(obj:0)
C39969                                              1 	(obj:0)
C39991                                              1 	(obj:0)
C39992                                              1 	(obj:0)
C39993                                              1 	(obj:0)
C39994                                              1 	(obj:0)
C39995                                              1 	(obj:0)
C40016                                              1 	(obj:0)
C40018                                              1 	(obj:0)
C40019                                              1 	(obj:0)
C40020                                              1 	(obj:0)
C40039                                              1 	(obj:0)
C40040                                              1 	(obj:0)
C40041                                              1 	(obj:0)
C40042                                              1 	(obj:0)
C40043                                              1 	(obj:0)
C40044                                              1 	(obj:0)
C40063                                              1 	(obj:0)
C40064                                              1 	(obj:0)
C40065                                              1 	(obj:0)
C40066                                              1 	(obj:0)
C40068                                              1 	(obj:0)
C40087                                              1 	(obj:0)
C40088                                              1 	(obj:0)
C40089                                              1 	(obj:0)
C40090                                              1 	(obj:0)
C40091                                              1 	(obj:0)
C40111                                              1 	(obj:0)
C40112                                              1 	(obj:0)
C40113                                              1 	(obj:0)
C40114                                              1 	(obj:0)
C40115                                              1 	(obj:0)
C40135                                              1 	(obj:0)
C40136                                              1 	(obj:0)
C40137                                              1 	(obj:0)
C40138                                              1 	(obj:0)
C40139                                              1 	(obj:0)
C40140                                              1 	(obj:0)
C40159                                              1 	(obj:0)
C40160                                              1 	(obj:0)
C40162                                              1 	(obj:0)
C40163                                              1 	(obj:0)
C40239                                              1 	(obj:0)
C40240                                              1 	(obj:0)
C40242                                              1 	(obj:0)
C40245                                              1 	(obj:0)
C40246                                              1 	(obj:0)
C40249                                              1 	(obj:0)
C40251                                              1 	(obj:0)
C40252                                              1 	(obj:0)
C40254                                              1 	(obj:0)
C40338                                              1 	(obj:0)
C40339                                              1 	(obj:0)
C40345                                              1 	(obj:0)
C40349                                              1 	(obj:0)
C40351                                              1 	(obj:0)
C40352                                              1 	(obj:0)
C40353                                              1 	(obj:0)
C40430                                              1 	(obj:0)
C40432                                              1 	(obj:0)
C40433                                              1 	(obj:0)
C40434                                              1 	(obj:0)
C40435                                              1 	(obj:0)
C40438                                              1 	(obj:0)
C40440                                              1 	(obj:0)
C40441                                              1 	(obj:0)
C40442                                              1 	(obj:0)
C40443                                              1 	(obj:0)
C40446                                              1 	(obj:0)
C40447                                              1 	(obj:0)
C40448                                              1 	(obj:0)
C40449                                              1 	(obj:0)
C40527                                              1 	(obj:0)
C40529                                              1 	(obj:0)
C40532                                              1 	(obj:0)
C40533                                              1 	(obj:0)
C40534                                              1 	(obj:0)
C40537                                              1 	(obj:0)
C40540                                              1 	(obj:0)
C40545                                              1 	(obj:0)
C40621                                              1 	(obj:0)
C40623                                              1 	(obj:0)
C40625                                              1 	(obj:0)
C40626                                              1 	(obj:0)
C40627                                              1 	(obj:0)
C40628                                              1 	(obj:0)
C40629                                              1 	(obj:0)
C40631                                              1 	(obj:0)
C40632                                              1 	(obj:0)
C40634                                              1 	(obj:0)
C40637                                              1 	(obj:0)
C40640                                              1 	(obj:0)
C40718                                              1 	(obj:0)
C40721                                              1 	(obj:0)
C40722                                              1 	(obj:0)
C40726                                              1 	(obj:0)
C40727                                              1 	(obj:0)
C40732                                              1 	(obj:0)
C40735                                              1 	(obj:0)
C40814                                              1 	(obj:0)
C40819                                              1 	(obj:0)
C40820                                              1 	(obj:0)
C40822                                              1 	(obj:0)
C40823                                              1 	(obj:0)
C40824                                              1 	(obj:0)
C40827                                              1 	(obj:0)
C40829                                              1 	(obj:0)
C40830                                              1 	(obj:0)
C40833                                              1 	(obj:0)
C40909                                              1 	(obj:0)
C40913                                              1 	(obj:0)
C40915                                              1 	(obj:0)
C40922                                              1 	(obj:0)
C40923                                              1 	(obj:0)
C40925                                              1 	(obj:0)
C5356                                               1 	(obj:0)
C5740                                               1 	(obj:0)
C5933                                               1 	(obj:0)
C6413                                               1 	(obj:0)
C6701                                               1 	(obj:0)
C6893                                               1 	(obj:0)
C7469                                               1 	(obj:0)
C7757                                               1 	(obj:0)
C8046                                               1 	(obj:0)
C8430                                               1 	(obj:0)
C8910                                               1 	(obj:0)
C9390                                               1 	(obj:0)
C9870                                               1 	(obj:0)
C10158                                              1 	(obj:0)
C10543                                              1 	(obj:0)
C10831                                              1 	(obj:0)
C11215                                              1 	(obj:0)
C11599                                              1 	(obj:0)
C12079                                              1 	(obj:0)
C12271                                              1 	(obj:0)
C12560                                              1 	(obj:0)
C13040                                              1 	(obj:0)
C13232                                              1 	(obj:0)
C13712                                              1 	(obj:0)
C14193                                              1 	(obj:0)
C14577                                              1 	(obj:0)
C14961                                              1 	(obj:0)
C15249                                              1 	(obj:0)
C15730                                              1 	(obj:0)
C16114                                              1 	(obj:0)
C16402                                              1 	(obj:0)
C16594                                              1 	(obj:0)
C16882                                              1 	(obj:0)
C17458                                              1 	(obj:0)
C17939                                              1 	(obj:0)
C18419                                              1 	(obj:0)
C18995                                              1 	(obj:0)
C19187                                              1 	(obj:0)
C19668                                              1 	(obj:0)
C19860                                              1 	(obj:0)
C20148                                              1 	(obj:0)
C20340                                              1 	(obj:0)
C20629                                              1 	(obj:0)
C21205                                              1 	(obj:0)
C21685                                              1 	(obj:0)
C22261                                              1 	(obj:0)
C22453                                              1 	(obj:0)
C22741                                              1 	(obj:0)
C23222                                              1 	(obj:0)
C23414                                              1 	(obj:0)
C23606                                              1 	(obj:0)
C23798                                              1 	(obj:0)
C24375                                              1 	(obj:0)
C24663                                              1 	(obj:0)
C25047                                              1 	(obj:0)
C25239                                              1 	(obj:0)
C25431                                              1 	(obj:0)
C25815                                              1 	(obj:0)
C26296                                              1 	(obj:0)
C26584                                              1 	(obj:0)
C26872                                              1 	(obj:0)
C27064                                              1 	(obj:0)
C27257                                              1 	(obj:0)
C27449                                              1 	(obj:0)
C27737                                              1 	(obj:0)
C28121                                              1 	(obj:0)
C28410                                              1 	(obj:0)
C28986                                              1 	(obj:0)
C29274                                              1 	(obj:0)
C29850                                              1 	(obj:0)
C30042                                              1 	(obj:0)
C30426                                              1 	(obj:0)
C30811                                              1 	(obj:0)
C31291                                              1 	(obj:0)
C31675                                              1 	(obj:0)
C32059                                              1 	(obj:0)
C32540                                              1 	(obj:0)
C32732                                              1 	(obj:0)
C33116                                              1 	(obj:0)
C33500                                              1 	(obj:0)
C33981                                              1 	(obj:0)
C34173                                              1 	(obj:0)
C34557                                              1 	(obj:0)
C34749                                              1 	(obj:0)
C35229                                              1 	(obj:0)
C0560                                               1 	(obj:0)
C0841                                               1 	(obj:0)
C1033                                               1 	(obj:0)
C1321                                               1 	(obj:0)
C1897                                               1 	(obj:0)
C2090                                               1 	(obj:0)
C2378                                               1 	(obj:0)
C2666                                               1 	(obj:0)
C2858                                               1 	(obj:0)
C3339                                               1 	(obj:0)
C3723                                               1 	(obj:0)
C4011                                               1 	(obj:0)
C4395                                               1 	(obj:0)
C4876                                               1 	(obj:0)
C5164                                               1 	(obj:0)
